(set-logic QF_LRA)
(declare-fun x1 () Real)
(declare-fun x2 () Real)
(declare-fun x3 () Real)
(declare-fun x4 () Real)
(declare-fun x5 () Real)
(declare-fun x6 () Real)
(declare-fun x7 () Real)
(declare-fun x8 () Real)
(declare-fun x9 () Real)
(declare-fun x10 () Real)

(assert (>= (- -2 ( + ( + (* 5 x2) (* 4 x1) ) (* -7 x3) )) 0))
(assert (>= (- -5 ( + ( + (* -10 x3) x2 ) (* 10 x4) )) 0))
(assert (>= (- 4 ( + ( + (* 10 x3) (* -3 x4) ) (* 10 x5) )) 0))
(assert (>= (- -3 ( + ( + (* 7 x4) (* 7 x6) ) (* -5 x3) )) 0))
(assert (>= (- 6 ( + ( + x3 (* -9 x2) ) (* -1 x7) )) 0))
(assert (>= (- 9 ( + ( + (* -5 x3) (* -1 x2) ) (* 9 x8) )) 0))
(assert (>= (- 8 ( + ( + (* -3 x9) (* -5 x2) ) (* 10 x3) )) 0))
(assert (>= (- 9 ( + ( + (* -5 x3) (* -2 x6) ) (* -3 x10) )) 0))
(assert (>= (- -9 ( + ( + x9 (* 9 x2) ) (* -8 x3) )) 0))
(assert (>= (- -6 ( + (* 6 x3) (* 3 x9) )) 0))
(assert (>= (- 0 ( + ( + (* -5 x3) (* 6 x2) ) (* 7 x7) )) 0))
(assert (>= (- -2 ( + ( + (* -2 x9) (* 7 x2) ) (* 8 x3) )) 0))
(assert (>= (- 1 ( + ( + (* -5 x3) (* -2 x2) ) (* -2 x8) )) 0))
(assert (>= (- -2 (* -7 x4)) 0))
(assert (>= (- -4 ( + ( + (* -7 x3) (* -2 x2) ) (* -9 x7) )) 0))
(assert (>= (- 2 ( + (* -10 x6) (* 6 x4) )) 0))
(assert (>= (- 9 (* 7 x3)) 0))
(assert (>= (- -3 ( + (* 6 x3) (* 6 x4) )) 0))
(assert (>= (- -2 (* -5 x2)) 0))
(assert (>= (- 10 (* -2 x10)) 0))
(check-sat)
(exit)